c Result of efficient AIG-to-CNF conversion using package CNF
p cnf 45 55
2 42 -3 9 -12 0
-2 -42 0
-2 12 0
-2 -9 0
-2 3 0
3 -41 -43 44 4 0
-3 -4 0
-3 41 0
-3 43 0
-3 -44 0
-4 27 28 5 6 0
4 -27 0
4 -6 0
4 -5 0
4 -28 0
-5 13 14 15 16 0
5 -16 0
5 -15 0
5 -13 0
5 -14 0
-6 20 21 22 7 0
6 -7 0
6 -22 0
6 -20 0
6 -21 0
-7 17 18 19 8 0
7 -8 0
7 -19 0
7 -17 0
7 -18 0
-8 23 24 25 26 0
8 -26 0
8 -25 0
8 -23 0
8 -24 0
-9 35 36 10 11 0
9 -35 0
9 -11 0
9 -10 0
9 -36 0
-10 29 30 0
10 -29 0
10 -30 0
-11 31 32 33 34 0
11 -34 0
11 -33 0
11 -31 0
11 -32 0
12 37 -38 39 -40 0
-12 38 0
-12 -39 0
-12 -37 0
-12 40 0
-45 0
2 0

